certificates/rado_a7_c172_N25.cnf
c Rad2 upper bound instance: x1 + 7*x2 - x3 = 172, interval [1,25]
p cnf 25 126
1 4 25 0
-1 -4 -25 0
2 5 25 0
-2 -5 -25 0
3 6 25 0
-3 -6 -25 0
4 7 25 0
-4 -7 -25 0
1 5 24 0
-1 -5 -24 0
5 8 25 0
-5 -8 -25 0
2 6 24 0
-2 -6 -24 0
6 9 25 0
-6 -9 -25 0
3 7 24 0
-3 -7 -24 0
7 10 25 0
-7 -10 -25 0
4 8 24 0
-4 -8 -24 0
8 11 25 0
-8 -11 -25 0
5 9 24 0
-5 -9 -24 0
9 12 25 0
-9 -12 -25 0
6 10 24 0
-6 -10 -24 0
10 13 25 0
-10 -13 -25 0
7 11 24 0
-7 -11 -24 0
11 14 25 0
-11 -14 -25 0
1 12 23 0
-1 -12 -23 0
8 12 24 0
-8 -12 -24 0
12 15 25 0
-12 -15 -25 0
2 13 23 0
-2 -13 -23 0
9 13 24 0
-9 -13 -24 0
13 16 25 0
-13 -16 -25 0
3 14 23 0
-3 -14 -23 0
10 14 24 0
-10 -14 -24 0
14 17 25 0
-14 -17 -25 0
4 15 23 0
-4 -15 -23 0
11 15 24 0
-11 -15 -24 0
15 18 25 0
-15 -18 -25 0
5 16 23 0
-5 -16 -23 0
12 16 24 0
-12 -16 -24 0
16 19 25 0
-16 -19 -25 0
6 17 23 0
-6 -17 -23 0
13 17 24 0
-13 -17 -24 0
17 20 25 0
-17 -20 -25 0
7 18 23 0
-7 -18 -23 0
14 18 24 0
-14 -18 -24 0
18 21 25 0
-18 -21 -25 0
1 19 22 0
-1 -19 -22 0
8 19 23 0
-8 -19 -23 0
15 19 24 0
-15 -19 -24 0
19 22 25 0
-19 -22 -25 0
2 20 22 0
-2 -20 -22 0
9 20 23 0
-9 -20 -23 0
16 20 24 0
-16 -20 -24 0
20 23 25 0
-20 -23 -25 0
3 21 22 0
-3 -21 -22 0
10 21 23 0
-10 -21 -23 0
17 21 24 0
-17 -21 -24 0
21 24 25 0
-21 -24 -25 0
4 22 0
-4 -22 0
11 22 23 0
-11 -22 -23 0
18 22 24 0
-18 -22 -24 0
22 25 0
-22 -25 0
5 22 23 0
-5 -22 -23 0
12 23 0
-12 -23 0
19 23 24 0
-19 -23 -24 0
6 22 24 0
-6 -22 -24 0
13 23 24 0
-13 -23 -24 0
20 24 0
-20 -24 0
7 22 25 0
-7 -22 -25 0
14 23 25 0
-14 -23 -25 0
