certificates/rado_a7_c172_N25.drat
-24 -25 0
-25 0
22 0
-4 0
1 0
7 0
-19 0
16 0
24 0
-20 0
-5 0
-3 0
-18 0
-6 0
-11 0
-12 0
17 0
23 0
2 0
8 0
0
